50, 1051
38, 43
40, 45
35, 40
70, 80
140, 160
35, 40
6, 11
18, 23
36, 46
54, 69
36, 41
72, 82
144, 164
11, 16
4, 9
8, 18
4, 9
10, 15
20, 30
40, 60
10, 15
22, 27
22, 27
21, 26
42, 52
21, 26
23, 28
46, 56
92, 112
43, 48
43, 48
30, 35
60, 70
120, 140
30, 35
35, 40
70, 80
140, 160
105, 120
46, 51
46, 51
23, 28
46, 56
92, 112
46, 56
1, 6
2, 12
1, 6
1, 6
2, 12
